%mem=256MB
#P HF 6-31G(d) pop=nboread

! File generated by the HuLiS 3.3.3 c code - Thursday, October 26, 2017 1:49:04 PM CEST

0 1
C      4.39130      2.71128      0.00000
C      3.95142      3.95179      0.00000
C      5.00975      4.76207      0.00000
C      5.00028      6.10331      0.00000
C      3.93019      6.91603      0.00000
C      6.08436      6.89509      0.00000
C      4.35378      8.17364      0.00000
C      5.69018      8.15980      0.00000
C      2.63256      6.61048      0.00000
C      1.76479      7.64121      0.00000
C      2.19935      8.92267      0.00000
C      3.51479      9.20904      0.00000
C      7.37409      6.55756      0.00000
C      8.26732      7.56555      0.00000
C      7.86290      8.85697      0.00000
C      6.55399      9.17497      0.00000
C      3.55945      1.66778      0.00000
C      2.23891      1.93092      0.00000
C      1.78563      3.20439      0.00000
C      2.64826      4.23626      0.00000
C      2.20215      5.49863      0.00000
C      0.88212      5.73202      0.00000
C      0.01747      4.70680      0.00000
C      0.46764      3.44426      0.00000
H      3.59912      6.82462      0.00000
H      0.79194      7.45773      0.00000
H      1.53982      9.66099      0.00000
H      3.84282     10.14312      0.00000
H      7.66179      5.61029      0.00000
H      9.23541      7.35839      0.00000
H      8.53977      9.57943      0.00000
H      6.24848     10.11665      0.00000
H      3.89943      0.73798      0.00000
H      1.59152      1.18192      0.00000
H      2.84223      6.25387      0.00000
H      0.54490      6.66282      0.00000
H     -0.95670      4.88313      0.00000
H     -0.17328      2.68973      0.00000
H      7.57101     12.65180      0.00000
H      6.49152     10.38810      0.00000
H      9.33955      8.37475      0.00000
H      9.87084     10.15404      0.00000

