%mem=256MB
#P HF 6-31G(d) pop=nboread

! File generated by the HuLiS 3.3.3 c code - Thursday, October 26, 2017 1:52:42 PM CEST

0 1
C     28.88725     43.72111      0.00000
C     28.47414     44.99685      0.00000
C     29.41367     45.95784      0.00000
C     27.15928     45.26901      0.00000
C     28.00237     42.71750      0.00000
C     26.69233     42.98800      0.00000
C     26.27159     44.26036      0.00000
C     26.72611     46.53699      0.00000
C     25.41030     46.79449      0.00000
C     24.52685     45.78739      0.00000
C     24.95770     44.52058      0.00000
C     29.19029     47.28357      0.00000
C     28.02272     47.95608      0.00000
C     30.16256     48.20936      0.00000
C     28.28905     49.25883      0.00000
C     29.61555     49.41341      0.00000
C     26.76827     47.50043      0.00000
C     25.78126     48.42202      0.00000
C     26.05615     49.74843      0.00000
C     27.32791     50.17942      0.00000
C     25.05890     50.64413      0.00000
C     25.33601     51.95675      0.00000
C     26.60895     52.37914      0.00000
C     27.61002     51.48830      0.00000
C     31.48534     48.03588      0.00000
C     32.25054     49.14487      0.00000
C     31.69240     50.37714      0.00000
C     30.35539     50.52243      0.00000
C     29.80012     51.74081      0.00000
C     30.58831     52.82506      0.00000
C     31.92232     52.68660      0.00000
C     32.47447     51.46488      0.00000
H     12.94041     23.21923      0.00000
H     13.59132     23.80948      0.00000
H     12.76262     21.50495      0.00000
H     13.59132     23.80948      0.00000
H     29.85657     43.51984      0.00000
H     30.35840     45.66188      0.00000
H     28.31594     41.77847      0.00000
H     26.03396     42.24864      0.00000
H     27.37699     47.28295      0.00000
H     25.09069     47.73148      0.00000
H     23.55583     45.98031      0.00000
H     24.30547     43.77579      0.00000
H     27.70318     47.82608      0.00000
H     24.83774     48.12222      0.00000
H     24.11776     50.33696      0.00000
H     24.59778     52.61639      0.00000
H     26.80894     53.34873      0.00000
H     28.55110     51.79564      0.00000
H     31.88740     47.13119      0.00000
H     33.23659     49.05654      0.00000
H     28.81512     51.84012      0.00000
H     30.18517     53.72926      0.00000
H     32.50147     53.48953      0.00000
H     33.45957     51.36659      0.00000

